118
0 6 57 49 63 81 82 108 52 9 
66 101 31 50 83 112 22 59 15 61 
8 96 78 25 48 37 16 11 98 114 
41 75 23 85 89 43 115 44 86 69 
24 32 76 13 95 113 19 35 39 12 
109 18 46 54 42 74 70 91 90 77 
102 26 111 79 27 53 10 29 20 97 
87 55 73 93 71 106 36 17 105 72 
40 103 14 51 62 107 60 45 3 99 
68 92 1 117 116 33 94 110 30 84 
58 34 80 100 5 67 56 65 38 104 
7 2 47 64 4 28 88 21 
